NAME: random-74-9589
TYPE: TSP
COMMENT: size=74 seed=9589
DIMENSION: 150
EDGE_WEIGHT_TYPE: EUC_2D
NODE_COORD_SECTION
+0 323 794
-0 323 794
+1 894 155
-1 619 819
+2 736 187
-2 141 125
+3 492 581
-3 79 154
+4 158 150
-4 388 388
+5 526 46
-5 992 586
+6 729 893
-6 304 52
+7 741 534
-7 470 238
+8 716 878
-8 564 728
+9 929 70
-9 590 128
+10 467 421
-10 414 623
+11 856 493
-11 60 98
+12 361 225
-12 786 857
+13 852 524
-13 184 998
+14 781 715
-14 624 607
+15 180 735
-15 711 963
+16 169 225
-16 309 422
+17 356 108
-17 275 908
+18 583 643
-18 372 355
+19 226 144
-19 931 946
+20 496 672
-20 137 242
+21 238 563
-21 672 71
+22 438 82
-22 40 208
+23 290 611
-23 732 910
+24 427 850
-24 428 815
+25 745 891
-25 181 969
+26 15 655
-26 235 381
+27 938 443
-27 181 834
+28 706 48
-28 838 644
+29 434 131
-29 261 918
+30 956 522
-30 750 828
+31 376 670
-31 86 70
+32 636 150
-32 103 941
+33 971 977
-33 510 670
+34 931 510
-34 609 813
+35 784 292
-35 878 833
+36 908 717
-36 687 779
+37 516 986
-37 5 617
+38 379 886
-38 939 349
+39 116 772
-39 925 314
+40 175 538
-40 606 174
+41 198 404
-41 997 549
+42 579 228
-42 835 742
+43 506 597
-43 509 69
+44 328 786
-44 624 628
+45 668 774
-45 76 820
+46 27 357
-46 292 660
+47 441 42
-47 670 555
+48 136 102
-48 316 22
+49 804 130
-49 767 52
+50 634 504
-50 947 547
+51 774 257
-51 708 433
+52 864 243
-52 807 148
+53 232 631
-53 173 565
+54 246 275
-54 765 724
+55 403 254
-55 81 689
+56 636 435
-56 692 579
+57 773 806
-57 214 342
+58 261 478
-58 949 279
+59 21 263
-59 208 996
+60 76 243
-60 94 136
+61 60 562
-61 904 228
+62 546 189
-62 881 606
+63 407 55
-63 619 826
+64 599 884
-64 463 306
+65 132 413
-65 119 419
+66 259 55
-66 456 731
+67 374 989
-67 603 583
+68 314 877
-68 57 852
+69 169 804
-69 600 215
+70 91 792
-70 473 517
+71 876 989
-71 296 686
+72 981 399
-72 980 717
+73 686 632
-73 650 345
+74 656 16
-74 567 877
PRECEDENCE_SECTION
+0 -0
+1 -1
+2 -2
+3 -3
+4 -4
+5 -5
+6 -6
+7 -7
+8 -8
+9 -9
+10 -10
+11 -11
+12 -12
+13 -13
+14 -14
+15 -15
+16 -16
+17 -17
+18 -18
+19 -19
+20 -20
+21 -21
+22 -22
+23 -23
+24 -24
+25 -25
+26 -26
+27 -27
+28 -28
+29 -29
+30 -30
+31 -31
+32 -32
+33 -33
+34 -34
+35 -35
+36 -36
+37 -37
+38 -38
+39 -39
+40 -40
+41 -41
+42 -42
+43 -43
+44 -44
+45 -45
+46 -46
+47 -47
+48 -48
+49 -49
+50 -50
+51 -51
+52 -52
+53 -53
+54 -54
+55 -55
+56 -56
+57 -57
+58 -58
+59 -59
+60 -60
+61 -61
+62 -62
+63 -63
+64 -64
+65 -65
+66 -66
+67 -67
+68 -68
+69 -69
+70 -70
+71 -71
+72 -72
+73 -73
+74 -74
EOF
